 time = [3600.0, 3600.0, 3600.0, 3600.0, 3600.0, 3600.0, 3600.0, 3600.0, 3600.0, 3600.0, 3600.0, 3600.0, 3600.0, 3600.0, 3600.0, 3600.0, 3600.0, 2588.0, 59.0, 60.0, 60.0, 60.0, 60.0, 60.0, 60.0, 60.0, 60.0, 60.0, 60.0, 60.0, 60.0, 60.0, 60.0, 60.0, 60.0, 60.0, 60.0, 60.0, 60.0, 60.0, 60.0, 60.0, 60.0, 60.0, 60.0, 60.0, 60.0, 60.0, 60.0, 60.0, 60.0, 60.0, 60.0, 60.0, 60.0, 60.0, 60.0, 60.0, 60.0, 60.0, 60.0, 60.0, 60.0, 60.0, 60.0, 60.0, 60.0, 60.0, 60.0, 60.0, 60.0, 60.0, 60.0, 60.0, 60.0, 60.0, 60.0, 60.0, 60.0, 60.0, 60.0, 60.0, 60.0, 60.0, 60.0, 60.0, 60.0, 60.0, 60.0, 60.0, 60.0, 60.0, 60.0, 60.0, 60.0, 60.0, 60.0, 60.0, 60.0, 60.0, 60.0, 60.0, 60.0, 60.0, 60.0, 60.0, 60.0, 60.0, 60.0, 60.0, 60.0, 60.0, 60.0, 60.0, 60.0, 60.0, 60.0, 60.0, 60.0, 60.0, 60.0, 60.0, 60.0, 60.0, 60.0, 60.0, 60.0, 60.0, 60.0, 60.0, 60.0, 60.0, 60.0, 60.0, 60.0, 60.0, 60.0, 60.0, 60.0, 60.0, 60.0, 60.0, 60.0, 60.0, 60.0, 60.0, 60.0, 60.0, 60.0, 60.0, 60.0, 60.0, 60.0, 60.0, 60.0, 60.0, 60.0, 60.0, 60.0, 60.0, 60.0, 60.0, 60.0, 60.0, 60.0, 60.0, 60.0, 60.0, 60.0, 60.0, 60.0, 60.0, 60.0, 60.0, 60.0, 60.0, 60.0, 60.0, 60.0, 60.0, 60.0, 60.0, 60.0, 60.0, 60.0, 60.0, 60.0, 60.0, 60.0, 60.0, 60.0, 60.0, 60.0, 60.0, 60.0, 60.0, 60.0, 60.0, 60.0, 60.0, 60.0, 60.0, 60.0, 60.0, 60.0, 60.0, 60.0, 60.0, 60.0, 60.0, 60.0, 60.0, 60.0, 60.0, 60.0, 60.0, 60.0, 60.0, 60.0, 60.0, 60.0, 60.0, 60.0, 60.0, 60.0, 60.0, 60.0, 60.0, 60.0, 60.0, 60.0, 60.0, 60.0, 60.0, 60.0, 60.0, 60.0, 60.0, 60.0, 60.0, 60.0, 60.0, 60.0, 60.0, 60.0, 60.0, 60.0, 60.0, 60.0, 60.0, 26.0, 1467.0, 3600.0]
 lat = [-34.869824, -34.869824, -34.869824, -34.869824, -34.869824, -34.869824, -34.869824, -34.869824, -34.869824, -34.869824, -34.869824, -34.869824, -34.869824, -34.869824, -34.869824, -34.869824, -34.869824, -34.869824, -34.869824, -34.869824, -34.869824, -34.869824, -34.869824, -34.869824, -34.869824, -34.869824, -34.869824, -34.869824, -34.869824, -34.869824, -34.869824, -34.869824, -34.869824, -34.869824, -34.869824, -34.869824, -34.869824, -34.869824, -34.869824, -34.869824, -34.869824, -34.869824, -34.869824, -34.869824, -34.869824, -34.869824, -34.869824, -34.869824, -34.869824, -34.869824, -34.869824, -34.869824, -34.869824, -34.869824, -34.869824, -34.869824, -34.869824, -34.869824, -34.869824, -34.869824, -34.869824, -34.869824, -34.869824, -34.869824, -34.869824, -34.869824, -34.869824, -34.869824, -34.869824, -34.869824, -34.869824, -34.869824, -34.869824, -34.869824, -34.869824, -34.869824, -34.869824, -34.869824, -34.869824, -34.869824, -34.869824, -34.869824, -34.869824, -34.869824, -34.869824, -34.869824, -34.869824, -34.869824, -34.869824, -34.869824, -34.869824, -34.869824, -34.869824, -34.869824, -34.869824, -34.869824, -34.869824, -34.869824, -34.869824, -34.869824, -34.869824, -34.869824, -34.869824, -34.869824, -34.869824, -34.869824, -34.869824, -34.869824, -34.869824, -34.869824, -34.869824, -34.869824, -34.869824, -34.869824, -34.869824, -34.869824, -34.869824, -34.869824, -34.869824, -34.869824, -34.869824, -34.869824, -34.869824, -34.869824, -34.869824, -34.869824, -34.869824, -34.869824, -34.869824, -34.869824, -34.869824, -34.869824, -34.869824, -34.869824, -34.869824, -34.869824, -34.869824, -34.869824, -34.869824, -34.869824, -34.869824, -34.869824, -34.869824, -34.869824, -34.869824, -34.869824, -34.869824, -34.869824, -34.869824, -34.869824, -34.869824, -34.869824, -34.869824, -34.869824, -34.869824, -34.869824, -34.869824, -34.869824, -34.869824, -34.869824, -34.869824, -34.869824, -34.869824, -34.869824, -34.869824, -34.869824, -34.869824, -34.869824, -34.869824, -34.869824, -34.869824, -34.869824, -34.869824, -34.869824, -34.869824, -34.869824, -34.869824, -34.869824, -34.869824, -34.869824, -34.869824, -34.869824, -34.869824, -34.869824, -34.869824, -34.869824, -34.869824, -34.869824, -34.869824, -34.869824, -34.869824, -34.869824, -34.869824, -34.869824, -34.869824, -34.869824, -34.869824, -34.869824, -34.869824, -34.869824, -34.869824, -34.869824, -34.869824, -34.869824, -34.869824, -34.869824, -34.869824, -34.869824, -34.869824, -34.869824, -34.869824, -34.869824, -34.869824, -34.869824, -34.869824, -34.869824, -34.869824, -34.869824, -34.869824, -34.869824, -34.869824, -34.869824, -34.869824, -34.869824, -34.869824, -34.869824, -34.869824, -34.869824, -34.869824, -34.869824, -34.869824, -34.869824, -34.869824, -34.869824, -34.869824, -34.869824, -34.869824, -34.869824, -34.869824, -34.869824, -34.869824, -34.869824, -34.869824, -34.869824, -34.869824, -34.869824, -34.869824, -34.869824, -34.869824, -34.869824, -34.869824, -34.869824, -34.869824, -34.869824]
 lon = [-56.284644, -56.284644, -56.284644, -56.284644, -56.284644, -56.284644, -56.284644, -56.284644, -56.284644, -56.284644, -56.284644, -56.284644, -56.284644, -56.284644, -56.284644, -56.284644, -56.284644, -56.284644, -56.284644, -56.284644, -56.284644, -56.284644, -56.284644, -56.284644, -56.284644, -56.284644, -56.284644, -56.284644, -56.284644, -56.284644, -56.284644, -56.284644, -56.284644, -56.284644, -56.284644, -56.284644, -56.284644, -56.284644, -56.284644, -56.284644, -56.284644, -56.284644, -56.284644, -56.284644, -56.284644, -56.284644, -56.284644, -56.284644, -56.284644, -56.284644, -56.284644, -56.284644, -56.284644, -56.284644, -56.284644, -56.284644, -56.284644, -56.284644, -56.284644, -56.284644, -56.284644, -56.284644, -56.284644, -56.284644, -56.284644, -56.284644, -56.284644, -56.284644, -56.284644, -56.284644, -56.284644, -56.284644, -56.284644, -56.284644, -56.284644, -56.284644, -56.284644, -56.284644, -56.284644, -56.284644, -56.284644, -56.284644, -56.284644, -56.284644, -56.284644, -56.284644, -56.284644, -56.284644, -56.284644, -56.284644, -56.284644, -56.284644, -56.284644, -56.284644, -56.284644, -56.284644, -56.284644, -56.284644, -56.284644, -56.284644, -56.284644, -56.284644, -56.284644, -56.284644, -56.284644, -56.284644, -56.284644, -56.284644, -56.284644, -56.284644, -56.284644, -56.284644, -56.284644, -56.284644, -56.284644, -56.284644, -56.284644, -56.284644, -56.284644, -56.284644, -56.284644, -56.284644, -56.284644, -56.284644, -56.284644, -56.284644, -56.284644, -56.284644, -56.284644, -56.284644, -56.284644, -56.284644, -56.284644, -56.284644, -56.284644, -56.284644, -56.284644, -56.284644, -56.284644, -56.284644, -56.284644, -56.284644, -56.284644, -56.284644, -56.284644, -56.284644, -56.284644, -56.284644, -56.284644, -56.284644, -56.284644, -56.284644, -56.284644, -56.284644, -56.284644, -56.284644, -56.284644, -56.284644, -56.284644, -56.284644, -56.284644, -56.284644, -56.284644, -56.284644, -56.284644, -56.284644, -56.284644, -56.284644, -56.284644, -56.284644, -56.284644, -56.284644, -56.284644, -56.284644, -56.284644, -56.284644, -56.284644, -56.284644, -56.284644, -56.284644, -56.284644, -56.284644, -56.284644, -56.284644, -56.284644, -56.284644, -56.284644, -56.284644, -56.284644, -56.284644, -56.284644, -56.284644, -56.284644, -56.284644, -56.284644, -56.284644, -56.284644, -56.284644, -56.284644, -56.284644, -56.284644, -56.284644, -56.284644, -56.284644, -56.284644, -56.284644, -56.284644, -56.284644, -56.284644, -56.284644, -56.284644, -56.284644, -56.284644, -56.284644, -56.284644, -56.284644, -56.284644, -56.284644, -56.284644, -56.284644, -56.284644, -56.284644, -56.284644, -56.284644, -56.284644, -56.284644, -56.284644, -56.284644, -56.284644, -56.284644, -56.284644, -56.284644, -56.284644, -56.284644, -56.284644, -56.284644, -56.284644, -56.284644, -56.284644, -56.284644, -56.284644, -56.284644, -56.284644, -56.284644, -56.284644, -56.284644, -56.284644, -56.284644, -56.284644, -56.284644, -56.284644, -56.284644, -56.284644, -56.284644]
 vel = [0, 0, 0, 0, 0, 0, 0, 0, 0, 0, 0, 0, 0, 0, 0, 0, 0, 0, 0, 0, 0, 0, 0, 0, 0, 0, 0, 0, 0, 0, 0, 0, 0, 0, 0, 0, 0, 0, 0, 0, 0, 0, 0, 0, 0, 0, 0, 0, 0, 0, 0, 0, 0, 0, 0, 0, 0, 0, 0, 0, 0, 0, 0, 0, 0, 0, 0, 0, 0, 0, 0, 0, 0, 0, 0, 0, 0, 0, 0, 0, 0, 0, 0, 0, 0, 0, 0, 0, 0, 0, 0, 0, 0, 0, 0, 0, 0, 0, 0, 0, 0, 0, 0, 0, 0, 0, 0, 0, 0, 0, 0, 0, 0, 0, 0, 0, 0, 0, 0, 0, 0, 0, 0, 0, 0, 0, 0, 0, 0, 0, 0, 0, 0, 0, 0, 0, 0, 0, 0, 0, 0, 0, 0, 0, 0, 0, 0, 0, 0, 0, 0, 0, 0, 0, 0, 0, 0, 0, 0, 0, 0, 0, 0, 0, 0, 0, 0, 0, 0, 0, 0, 0, 0, 0, 0, 0, 0, 0, 0, 0, 0, 0, 0, 0, 0, 0, 0, 0, 0, 0, 0, 0, 0, 0, 0, 0, 0, 0, 0, 0, 0, 0, 0, 0, 0, 0, 0, 0, 0, 0, 0, 0, 0, 0, 0, 0, 0, 0, 0, 0, 0, 0, 0, 0, 0, 0, 0, 0, 0, 0, 0, 0, 0, 0, 0, 0, 0, 0, 0, 0, 0, 0, 0, 0, 0, 0, 0, 0, 0, 0, 0, 0, 0, 0]
 km = [0.0, 0.0, 0.0, 0.0, 0.0, 0.0, 0.0, 0.0, 0.0, 0.0, 0.0, 0.0, 0.0, 0.0, 0.0, 0.0, 0.0, 0.0, 0.0, 0.0, 0.0, 0.0, 0.0, 0.0, 0.0, 0.0, 0.0, 0.0, 0.0, 0.0, 0.0, 0.0, 0.0, 0.0, 0.0, 0.0, 0.0, 0.0, 0.0, 0.0, 0.0, 0.0, 0.0, 0.0, 0.0, 0.0, 0.0, 0.0, 0.0, 0.0, 0.0, 0.0, 0.0, 0.0, 0.0, 0.0, 0.0, 0.0, 0.0, 0.0, 0.0, 0.0, 0.0, 0.0, 0.0, 0.0, 0.0, 0.0, 0.0, 0.0, 0.0, 0.0, 0.0, 0.0, 0.0, 0.0, 0.0, 0.0, 0.0, 0.0, 0.0, 0.0, 0.0, 0.0, 0.0, 0.0, 0.0, 0.0, 0.0, 0.0, 0.0, 0.0, 0.0, 0.0, 0.0, 0.0, 0.0, 0.0, 0.0, 0.0, 0.0, 0.0, 0.0, 0.0, 0.0, 0.0, 0.0, 0.0, 0.0, 0.0, 0.0, 0.0, 0.0, 0.0, 0.0, 0.0, 0.0, 0.0, 0.0, 0.0, 0.0, 0.0, 0.0, 0.0, 0.0, 0.0, 0.0, 0.0, 0.0, 0.0, 0.0, 0.0, 0.0, 0.0, 0.0, 0.0, 0.0, 0.0, 0.0, 0.0, 0.0, 0.0, 0.0, 0.0, 0.0, 0.0, 0.0, 0.0, 0.0, 0.0, 0.0, 0.0, 0.0, 0.0, 0.0, 0.0, 0.0, 0.0, 0.0, 0.0, 0.0, 0.0, 0.0, 0.0, 0.0, 0.0, 0.0, 0.0, 0.0, 0.0, 0.0, 0.0, 0.0, 0.0, 0.0, 0.0, 0.0, 0.0, 0.0, 0.0, 0.0, 0.0, 0.0, 0.0, 0.0, 0.0, 0.0, 0.0, 0.0, 0.0, 0.0, 0.0, 0.0, 0.0, 0.0, 0.0, 0.0, 0.0, 0.0, 0.0, 0.0, 0.0, 0.0, 0.0, 0.0, 0.0, 0.0, 0.0, 0.0, 0.0, 0.0, 0.0, 0.0, 0.0, 0.0, 0.0, 0.0, 0.0, 0.0, 0.0, 0.0, 0.0, 0.0, 0.0, 0.0, 0.0, 0.0, 0.0, 0.0, 0.0, 0.0, 0.0, 0.0, 0.0, 0.0, 0.0, 0.0, 0.0, 0.0, 0.0, 0.0, 0.0, 0.0, 0.0, 0.0, 0.0, 0.0, 0.0, 0.0, 0.0, 0.0, 0.0, 0.0, 0.0]
 dParams = [4.0, 0.1, 10.0, 60.0, 0.0001, 1.0]